NAME : mar30_100_1
COMMENT : Data set with 30 points
COMMENT : CIn-UFPE
COMMENT : Contributed by Marcelo Lacerda
TYPE : TSP
DIMENSION : 30
EDGE_WEIGHT_TYPE : EUC_2D
NODE_COORD_SECTION
1 8 43
2 9 33
3 93 64
4 38 80
5 30 96
6 48 69
7 91 29
8 88 33
9 70 64
10 4 62
11 70 17
12 74 35
13 62 11
14 3 33
15 46 0
16 44 81
17 24 23
18 11 3
19 76 89
20 86 16
21 86 38
22 40 28
23 43 1
24 19 69
25 46 41
26 43 98
27 13 16
28 78 21
29 63 92
30 67 93
EOF
